100 104436

 335 703
86 409
734 982
875 304
424 935
613 559
738 222
364 533
60 158
482 348
250 159
560 889
117 884
739 922
874 235
915 662
968 405
999 257
545 677
44 589
509 597
988 558
165 905
368 913
857 47
292 213
849 479
856 487
917 571
898 566
799 342
876 524
737 704
286 503
204 6
684 821
524 144
819 858
121 261
945 585
756 686
664 232
664 270
188 940
907 447
13 874
603 222
200 52
586 116
768 538
456 565
448 877
788 541
840 19
841 815
71 392
590 791
796 629
130 618
889 419
43 991
520 309
13 739
725 864
623 186
988 261
803 528
535 273
302 160
766 870
527 762
642 224
573 256
115 180
460 20
832 624
505 632
308 706
932 468
963 623
325 210
579 513
761 58
175 93
851 221
514 723
172 940
997 232
960 774
502 364
977 615
334 562
284 374
475 622
54 456
458 88
579 20
420 14
614 133
632 937
